%%%%%%%%%%%%%%%%%%%%%%%%%%%%%%%%%%%%%%%%%%%%%%%%%%%%%%%%%%%%%%%%%%%%%%%%%
%FILE DATA:	Soccer Computational Problem for MiniZinc Models
%AUTHORS:	Robinson Duque, Alejandro Arbelaez, Juan Francisco Díaz
%CONTACT:  	robinson.duque@correounivalle.edu.co 
%LAST UPDATE:	May, 2018 
%ROUND ROBIN:2
%TEAMS:20
%PRESENT FIXTURE:27
%FIXTURES TO PLAY:11
%GAMES TO PLAY:110
%%%%%%%%%%%%%%%%%%%%%%%%%%%%%%%%%%%%%%%%%%%%%%%%%%%%%%%%%%%%%%%%%%%%%%%%%
%Number of teams:
n=20;

%For the purpose of our models, we offer two representations of the games to play, namely fixtures and games to play:

%Fixtures to play:
%fixtures=[|0,1,1,1,0,1,0,1,0,1,1,0,0,1,1,0,1,1,0,0
%|1,0,1,1,0,1,1,1,1,1,1,0,1,0,0,0,1,0,0,0
%|1,1,0,1,0,0,1,0,1,1,0,0,0,1,0,1,0,1,1,1
%|1,1,1,0,1,1,0,0,0,0,1,0,1,1,1,0,0,1,0,1
%|0,0,0,1,0,1,0,1,1,0,0,0,1,0,1,1,1,1,1,1
%|1,1,0,1,1,0,0,1,0,0,1,1,1,0,0,0,0,1,1,1
%|0,1,1,0,0,0,0,1,1,0,0,0,0,1,1,1,1,1,1,1
%|1,1,0,0,1,1,1,0,0,1,1,1,0,1,1,1,0,0,0,0
%|0,1,1,0,1,0,1,0,0,1,0,1,0,0,1,0,1,1,1,1
%|1,1,1,0,0,0,0,1,1,0,1,1,1,0,0,0,1,1,0,1
%|1,1,0,1,0,1,0,1,0,1,0,1,1,0,1,1,0,1,0,0
%|0,0,0,0,0,1,0,1,1,1,1,0,1,0,0,1,1,1,1,1
%|0,1,0,1,1,1,0,0,0,1,1,1,0,1,0,1,0,0,1,1
%|1,0,1,1,0,0,1,1,0,0,0,0,1,0,1,1,1,0,1,1
%|1,0,0,1,1,0,1,1,1,0,1,0,0,1,0,1,0,1,1,0
%|0,0,1,0,1,0,1,1,0,0,1,1,1,1,1,0,1,0,1,0
%|1,1,0,0,1,0,1,0,1,1,0,1,0,1,0,1,0,0,1,1
%|1,0,1,1,1,1,1,0,1,1,1,1,0,0,1,0,0,0,0,0
%|0,0,1,0,1,1,1,0,1,0,0,1,1,1,1,1,1,0,0,0
%|0,0,1,1,1,1,1,0,1,1,0,1,1,1,0,0,1,0,0,0|];

%Played Fixtures:
%PlayedFixtures=[|0,1,1,1,2,1,2,1,2,1,1,2,2,1,1,2,1,1,2,2
%|1,0,1,1,2,1,1,1,1,1,1,2,1,2,2,2,1,2,2,2
%|1,1,0,1,2,2,1,2,1,1,2,2,2,1,2,1,2,1,1,1
%|1,1,1,0,1,1,2,2,2,2,1,2,1,1,1,2,2,1,2,1
%|2,2,2,1,0,1,2,1,1,2,2,2,1,2,1,1,1,1,1,1
%|1,1,2,1,1,0,2,1,2,2,1,1,1,2,2,2,2,1,1,1
%|2,1,1,2,2,2,0,1,1,2,2,2,2,1,1,1,1,1,1,1
%|1,1,2,2,1,1,1,0,2,1,1,1,2,1,1,1,2,2,2,2
%|2,1,1,2,1,2,1,2,0,1,2,1,2,2,1,2,1,1,1,1
%|1,1,1,2,2,2,2,1,1,0,1,1,1,2,2,2,1,1,2,1
%|1,1,2,1,2,1,2,1,2,1,0,1,1,2,1,1,2,1,2,2
%|2,2,2,2,2,1,2,1,1,1,1,0,1,2,2,1,1,1,1,1
%|2,1,2,1,1,1,2,2,2,1,1,1,0,1,2,1,2,2,1,1
%|1,2,1,1,2,2,1,1,2,2,2,2,1,0,1,1,1,2,1,1
%|1,2,2,1,1,2,1,1,1,2,1,2,2,1,0,1,2,1,1,2
%|2,2,1,2,1,2,1,1,2,2,1,1,1,1,1,0,1,2,1,2
%|1,1,2,2,1,2,1,2,1,1,2,1,2,1,2,1,0,2,1,1
%|1,2,1,1,1,1,1,2,1,1,1,1,2,2,1,2,2,0,2,2
%|2,2,1,2,1,1,1,2,1,2,2,1,1,1,1,1,1,2,0,2
%|2,2,1,1,1,1,1,2,1,1,2,1,1,1,2,2,1,2,2,0|];

%Games to play:
games=[|2,1|3,1|3,2|4,1|4,2|4,3|5,4|6,1|6,2|6,4|6,5|7,2|7,3|8,1|8,2|8,5|8,6|8,7|9,2|9,3|9,5|9,7|10,1|10,2|10,3|10,8|10,9|11,1|11,2|11,4|11,6|11,8|11,10|12,6|12,8|12,9|12,10|12,11|13,2|13,4|13,5|13,6|13,10|13,11|13,12|14,1|14,3|14,4|14,7|14,8|14,13|15,1|15,4|15,5|15,7|15,8|15,9|15,11|15,14|16,3|16,5|16,7|16,8|16,11|16,12|16,13|16,14|16,15|17,1|17,2|17,5|17,7|17,9|17,10|17,12|17,14|17,16|18,1|18,3|18,4|18,5|18,6|18,7|18,9|18,10|18,11|18,12|18,15|19,3|19,5|19,6|19,7|19,9|19,12|19,13|19,14|19,15|19,16|19,17|20,3|20,4|20,5|20,6|20,7|20,9|20,10|20,12|20,13|20,14|20,17|];

%Played Games:
%PlayedGames=[|2,1|3,1|3,2|4,1|4,2|4,3|5,1|5,1|5,2|5,2|5,3|5,3|5,4|6,1|6,2|6,3|6,3|6,4|6,5|7,1|7,1|7,2|7,3|7,4|7,4|7,5|7,5|7,6|7,6|8,1|8,2|8,3|8,3|8,4|8,4|8,5|8,6|8,7|9,1|9,1|9,2|9,3|9,4|9,4|9,5|9,6|9,6|9,7|9,8|9,8|10,1|10,2|10,3|10,4|10,4|10,5|10,5|10,6|10,6|10,7|10,7|10,8|10,9|11,1|11,2|11,3|11,3|11,4|11,5|11,5|11,6|11,7|11,7|11,8|11,9|11,9|11,10|12,1|12,1|12,2|12,2|12,3|12,3|12,4|12,4|12,5|12,5|12,6|12,7|12,7|12,8|12,9|12,10|12,11|13,1|13,1|13,2|13,3|13,3|13,4|13,5|13,6|13,7|13,7|13,8|13,8|13,9|13,9|13,10|13,11|13,12|14,1|14,2|14,2|14,3|14,4|14,5|14,5|14,6|14,6|14,7|14,8|14,9|14,9|14,10|14,10|14,11|14,11|14,12|14,12|14,13|15,1|15,2|15,2|15,3|15,3|15,4|15,5|15,6|15,6|15,7|15,8|15,9|15,10|15,10|15,11|15,12|15,12|15,13|15,13|15,14|16,1|16,1|16,2|16,2|16,3|16,4|16,4|16,5|16,6|16,6|16,7|16,8|16,9|16,9|16,10|16,10|16,11|16,12|16,13|16,14|16,15|17,1|17,2|17,3|17,3|17,4|17,4|17,5|17,6|17,6|17,7|17,8|17,8|17,9|17,10|17,11|17,11|17,12|17,13|17,13|17,14|17,15|17,15|17,16|18,1|18,2|18,2|18,3|18,4|18,5|18,6|18,7|18,8|18,8|18,9|18,10|18,11|18,12|18,13|18,13|18,14|18,14|18,15|18,16|18,16|18,17|18,17|19,1|19,1|19,2|19,2|19,3|19,4|19,4|19,5|19,6|19,7|19,8|19,8|19,9|19,10|19,10|19,11|19,11|19,12|19,13|19,14|19,15|19,16|19,17|19,18|19,18|20,1|20,1|20,2|20,2|20,3|20,4|20,5|20,6|20,7|20,8|20,8|20,9|20,10|20,11|20,11|20,12|20,13|20,14|20,15|20,15|20,16|20,16|20,17|20,18|20,18|20,19|20,19|];

%Played Games - Win Results:
%% 0  0  0  0  0  0  0  0  0  0  0  0  0  0  0  0  0  1  1  1
%% 1  0  1  0  0  0  0  0  0  0  0  0  0  0  0  1  0  1  0  2
%% 0  0  0  0  0  0  0  0  0  0  0  0  0  0  0  0  0  0  0  0
%% 1  1  1  0  1  1  0  1  0  1  1  0  1  1  0  1  0  0  0  1
%% 0  0  0  0  0  0  0  0  0  0  0  0  0  0  0  0  0  0  0  0
%% 1  1  0  0  0  0  0  0  0  2  0  1  0  0  0  0  0  0  1  0
%% 0  0  0  0  0  0  0  0  0  0  0  0  0  0  0  0  0  0  0  0
%% 1  1  1  0  1  0  0  0  1  1  0  1  0  1  0  1  0  0  0  0
%% 0  0  0  0  0  0  0  0  0  1  0  0  0  0  0  0  0  0  0  1
%% 0  0  0  0  0  0  0  0  0  0  0  0  0  0  0  0  0  0  0  0
%% 1  0  1  0  0  0  0  1  1  0  0  1  0  0  0  1  2  0  0  0
%% 0  0  0  0  0  0  0  0  0  0  0  0  0  0  0  0  0  0  0  0
%% 0  0  0  0  1  1  0  1  2  0  0  0  0  1  0  0  0  0  0  1
%% 0  0  0  0  0  0  1  0  2  0  0  0  0  0  0  0  0  0  0  1
%% 1  0  2  0  0  2  0  0  1  0  0  0  2  0  0  0  2  1  0  0
%% 0  0  0  0  0  0  1  0  0  0  0  0  0  0  0  0  0  0  1  0
%% 1  0  1  0  1  1  0  0  1  1  0  1  0  1  0  1  0  0  0  0
%% 0  0  0  0  0  0  1  0  0  0  0  1  0  0  0  0  0  0  0  0
%% 0  0  0  0  1  0  0  0  0  0  0  0  0  0  0  0  0  0  0  0
%% 0  0  0  0  0  0  0  0  0  0  0  0  0  0  0  0  0  0  0  0
%Played Games - Tie Results:
%% 0  0  1  0  2  0  2  0  2  1  0  2  2  1  0  2  0  0  1  1
%% 0  0  0  0  2  0  1  0  1  1  1  2  1  2  2  1  1  1  2  0
%% 1  0  0  0  2  2  1  1  1  1  1  2  2  1  0  1  1  1  1  1
%% 0  0  0  0  0  0  2  1  2  1  0  2  0  0  1  1  2  1  2  0
%% 2  2  2  0  0  1  2  0  1  2  2  2  0  2  1  1  0  1  0  1
%% 0  0  2  0  1  0  2  1  2  0  1  0  0  2  0  2  1  1  0  1
%% 2  1  1  2  2  2  0  1  1  2  2  2  2  0  1  0  1  0  1  1
%% 0  0  1  1  0  1  1  0  1  0  0  0  1  0  1  0  2  2  2  2
%% 2  1  1  2  1  2  1  1  0  0  1  1  0  0  0  2  0  1  1  0
%% 1  1  1  1  2  0  2  0  0  0  1  1  1  2  2  2  0  1  2  1
%% 0  1  1  0  2  1  2  0  1  1  0  0  1  2  1  0  0  1  2  2
%% 2  2  2  2  2  0  2  0  1  1  0  0  1  2  2  1  0  0  1  1
%% 2  1  2  0  0  0  2  1  0  1  1  1  0  0  0  1  2  2  1  0
%% 1  2  1  0  2  2  0  0  0  2  2  2  0  0  1  1  0  2  1  0
%% 0  2  0  1  1  0  1  1  0  2  1  2  0  1  0  1  0  0  1  2
%% 2  1  1  1  1  2  0  0  2  2  0  1  1  1  1  0  0  2  0  2
%% 0  1  1  2  0  1  1  2  0  0  0  0  2  0  0  0  0  2  1  1
%% 0  1  1  1  1  1  0  2  1  1  1  0  2  2  0  2  2  0  2  2
%% 1  2  1  2  0  0  1  2  1  2  2  1  1  1  1  0  1  2  0  2
%% 1  0  1  0  1  1  1  2  0  1  2  1  0  0  2  2  1  2  2  0
%Played Games - Lose Results:
%% 0  1  0  1  0  1  0  1  0  0  1  0  0  0  1  0  1  0  0  0
%% 0  0  0  1  0  1  0  1  0  0  0  0  0  0  0  0  0  0  0  0
%% 0  1  0  1  0  0  0  1  0  0  1  0  0  0  2  0  1  0  0  0
%% 0  0  0  0  0  0  0  0  0  0  0  0  0  0  0  0  0  0  0  0
%% 0  0  0  1  0  0  0  1  0  0  0  0  1  0  0  0  1  0  1  0
%% 0  0  0  1  0  0  0  0  0  0  0  0  1  0  2  0  1  0  0  0
%% 0  0  0  0  0  0  0  0  0  0  0  0  0  1  0  1  0  1  0  0
%% 0  0  0  1  0  0  0  0  0  0  1  0  1  0  0  0  0  0  0  0
%% 0  0  0  0  0  0  0  1  0  0  1  0  2  2  1  0  1  0  0  0
%% 0  0  0  1  0  2  0  1  1  0  0  0  0  0  0  0  1  0  0  0
%% 0  0  0  1  0  0  0  0  0  0  0  0  0  0  0  0  0  0  0  0
%% 0  0  0  0  0  1  0  1  0  0  1  0  0  0  0  0  1  1  0  0
%% 0  0  0  1  0  0  0  0  0  0  0  0  0  0  2  0  0  0  0  0
%% 0  0  0  1  0  0  0  1  0  0  0  0  1  0  0  0  1  0  0  0
%% 0  0  0  0  0  0  0  0  0  0  0  0  0  0  0  0  0  0  0  0
%% 0  1  0  1  0  0  0  1  0  0  1  0  0  0  0  0  1  0  0  0
%% 0  0  0  0  0  0  0  0  0  0  2  0  0  0  2  0  0  0  0  0
%% 1  1  0  0  0  0  0  0  0  0  0  0  0  0  1  0  0  0  0  0
%% 1  0  0  0  0  1  0  0  0  0  0  0  0  0  0  1  0  0  0  0
%% 1  2  0  1  0  0  0  0  1  0  0  0  1  1  0  0  0  0  0  0

%%Initial points:
iPoints=[26, 36, 20, 51, 22, 34, 24, 42, 23, 21, 42, 22, 38, 31, 49, 26, 41, 28, 26, 20];

%%Initial positions:
%iPositions=[13, 7, 20, 1, 17, 8, 14, 4, 15, 18, 3, 16, 6, 9, 2, 12, 5, 10, 11, 19];

%%Position Constraints:
%numberPositionConstraints=1;

%%Total Fixtures:
%totalFixtures=38;

%%Fixtures to Play:
%fixturesToPlay=11;

%%Position Constraints Built With
%wantedPoints=[0, 3, 0, 1, 1, 3, 1, 1, 0, 0, 0, 0, 3, 0, 3, 0, 3, 1, 3, 3, 3, 3, 3, 3, 0, 1, 0, 0, 3, 3, 0, 3, 0, 3, 1, 3, 3, 3, 1, 1, 3, 1, 1, 0, 1, 1, 1, 0, 3, 3, 1, 1, 1, 3, 3, 0, 0, 0, 0, 3, 1, 1, 1, 0, 3, 3, 3, 1, 3, 3, 0, 1, 3, 1, 3, 1, 0, 0, 0, 3, 0, 1, 0, 3, 1, 0, 0, 3, 0, 1, 0, 3, 1, 1, 0, 3, 0, 0, 1, 1, 0, 0, 0, 3, 3, 1, 0, 1, 0, 1];

%POSITION CONSTRAINTS
%%[|teamID, operator, position|...]
%%operators index:
%%%1 for =  operator
%%%2 for >  operator
%%%3 for >= operator
%%%4 for <  operator
%%%5 for <= operator

positionConstraints=[|2,1,8|];

%SCORE VECTOR CONSTRAINTS
%%[|teamID, operator, wantedPoints|...]
%%operators index:
%%%1 for =  operator
%%%2 for >  operator
%%%3 for >= operator
%%%4 for <  operator
%%%5 for <= operator

%scoreVectorConstraints=[|2,1,47|];

%Instance Features:
%features=T,FP,TF,C,C/T,C/TF,FP/TF,FP/T,FP*C/T,FP*T/C,(C/T)*(FP/TF),Distance,Distance/C,Distance/T,Distance/(C*T)
%values=20,11,38,1,0.05,0.02631578947368421,0.2894736842105263,0.55,0.55,220.0,0.01447368421052632,1,1.0,0.05,0.05



gamesOfEveryTeam=[11,11,11,11,11,11,11,11,11,11,11,11,11,11,11,11,11,11,11,11];
weights=[|85,11,0,4|7,56,0,37|61,5,0,34|69,11,0,20|0,20,0,80|42,30,0,28|68,21,0,11|87,1,0,12|22,46,0,32|98,0,0,2|50,33,0,17|69,14,0,17|96,3,0,1|78,11,0,11|56,7,0,37|94,0,0,6|56,19,0,25|22,76,0,2|24,18,0,58|10,6,0,84|91,5,0,4|66,8,0,26|44,3,0,53|82,3,0,15|33,36,0,31|28,37,0,35|76,2,0,22|92,2,0,6|87,0,0,13|5,18,0,77|29,60,0,11|68,18,0,14|29,45,0,26|99,1,0,0|34,55,0,11|6,88,0,6|76,11,0,13|72,5,0,23|94,6,0,0|89,9,0,2|37,60,0,3|20,30,0,50|8,9,0,83|1,75,0,24|57,3,0,40|36,2,0,62|48,5,0,47|25,23,0,52|22,65,0,13|3,70,0,27|42,19,0,39|32,41,0,27|5,43,0,52|80,5,0,15|29,49,0,22|99,0,0,1|57,2,0,41|97,2,0,1|64,2,0,34|30,18,0,52|4,3,0,93|4,48,0,48|46,54,0,0|87,6,0,7|88,6,0,6|85,12,0,3|39,54,0,7|55,22,0,23|8,7,0,85|53,13,0,34|90,3,0,7|70,3,0,27|77,19,0,4|42,45,0,13|86,10,0,4|84,9,0,7|44,41,0,15|43,45,0,12|60,35,0,5|49,1,0,50|29,29,0,42|32,41,0,27|85,12,0,3|34,51,0,15|63,31,0,6|60,21,0,19|17,12,0,71|50,13,0,37|63,24,0,13|65,25,0,10|63,0,0,37|0,15,0,85|66,34,0,0|8,48,0,44|3,72,0,25|40,29,0,31|55,20,0,25|16,73,0,11|23,66,0,11|44,38,0,18|15,73,0,12|92,5,0,3|34,23,0,43|28,31,0,41|13,11,0,76|39,20,0,41|16,72,0,12|85,11,0,4|78,2,0,20|3,14,0,83|];